************************************************************************
file with basedata            : J12036_.BAS
initial value random generator: 431277750
************************************************************************
projects                      :  1
jobs (incl. supersource/sink ):  122
horizon                       :  704
RESOURCES
  - renewable                 :  4   R
  - nonrenewable              :  0   N
  - doubly constrained        :  0   D
************************************************************************
PROJECT INFORMATION:
pronr.  #jobs rel.date duedate tardcost  MPM-Time
    1    120      0      103       29      103
************************************************************************
PRECEDENCE RELATIONS:
jobnr.    #modes  #successors   successors
   1        1          3           2   3   4
   2        1          3           5   6  41
   3        1          3           7  11  37
   4        1          3          13  26 115
   5        1          3          58  78  93
   6        1          3          15  27  71
   7        1          3           8  10  30
   8        1          3           9  28  75
   9        1          3          20  33  35
  10        1          3          14  25  56
  11        1          3          12  24  60
  12        1          3          16  21  43
  13        1          2          22  53
  14        1          1          57
  15        1          3          29  72 101
  16        1          2          17  18
  17        1          2         103 120
  18        1          3          19  82  84
  19        1          3          38  39  99
  20        1          2          23 110
  21        1          3          31  57  67
  22        1          3          61  82 110
  23        1          3          34  42 101
  24        1          3          40  52  77
  25        1          2          46  47
  26        1          3          32  46  66
  27        1          2          52  83
  28        1          3          59  79 108
  29        1          3          34  45 102
  30        1          1          91
  31        1          3          63  78  97
  32        1          1          39
  33        1          1         121
  34        1          3          36  65  86
  35        1          3          66  69 101
  36        1          2          48  53
  37        1          2          86  87
  38        1          3          44  54  68
  39        1          1         105
  40        1          1          54
  41        1          3          50  61  80
  42        1          1          95
  43        1          3          54  55  76
  44        1          1          87
  45        1          1          51
  46        1          2          53  84
  47        1          3          68  94 106
  48        1          2          49  64
  49        1          1          84
  50        1          2          60  79
  51        1          1          76
  52        1          1         112
  53        1          1          82
  54        1          1          65
  55        1          1         108
  56        1          2          71  90
  57        1          3          62 110 114
  58        1          3          69  85  90
  59        1          2          64 111
  60        1          1          70
  61        1          1          71
  62        1          1          65
  63        1          2          80 107
  64        1          1          74
  65        1          2          83  89
  66        1          1         104
  67        1          3          72  73 117
  68        1          2          86  90
  69        1          2         102 104
  70        1          2          73 117
  71        1          2          74 106
  72        1          2          81  96
  73        1          1          88
  74        1          1          98
  75        1          1          91
  76        1          1          81
  77        1          2         106 111
  78        1          1          80
  79        1          3          97 105 112
  80        1          2         113 121
  81        1          1          91
  82        1          1          98
  83        1          1         118
  84        1          1          96
  85        1          3          89  94  98
  86        1          1          88
  87        1          2          89 103
  88        1          2          92 100
  89        1          2          92 111
  90        1          1         116
  91        1          1         115
  92        1          1         108
  93        1          2          95 107
  94        1          1          99
  95        1          2         102 103
  96        1          3          97 100 116
  97        1          1         104
  98        1          1          99
  99        1          1         100
 100        1          1         107
 101        1          1         109
 102        1          2         105 113
 103        1          1         109
 104        1          1         120
 105        1          1         114
 106        1          1         109
 107        1          1         113
 108        1          1         112
 109        1          1         116
 110        1          1         117
 111        1          1         118
 112        1          2         115 118
 113        1          1         114
 114        1          1         119
 115        1          1         120
 116        1          1         119
 117        1          1         119
 118        1          1         121
 119        1          1         122
 120        1          1         122
 121        1          1         122
 122        1          0        
************************************************************************
REQUESTS/DURATIONS:
jobnr. mode duration  R 1  R 2  R 3  R 4
------------------------------------------------------------------------
  1      1     0       0    0    0    0
  2      1     7       9    5   10    8
  3      1     2       9   10    5    7
  4      1     3       2    8    5   10
  5      1     1       8    6    7    4
  6      1     6       9    1    3    3
  7      1     5       1    5   10    2
  8      1     9       6    9    1    7
  9      1     2       4    4    5    5
 10      1    10       5    3    9    7
 11      1     7       3    9    8    7
 12      1     8       1    9    5    9
 13      1     9       9    9   10    2
 14      1     7       3    9    4    6
 15      1     7       6    8    6    9
 16      1     6       6    7    1    1
 17      1     5       5    2    9    8
 18      1     9       6   10    7    4
 19      1     8       5    8    5    8
 20      1     5       9    3    9    9
 21      1     1       9    9    9    4
 22      1     9       7   10    9    2
 23      1     2      10   10    7    6
 24      1     8       5    6   10    5
 25      1     6       3    2    3    9
 26      1     8       1    9    7    7
 27      1     6       6    2    6    5
 28      1    10      10    6    6    4
 29      1     9       9    1   10    3
 30      1     1       7    2    9    4
 31      1     3      10    8    9    7
 32      1     8       9    2   10    3
 33      1     3       6    2    7    8
 34      1     3       7    2    3    2
 35      1     3      10    3    3    7
 36      1     4       9    4    6    8
 37      1     9       6    6    2    5
 38      1    10       8    2    3    5
 39      1     2       9    1    4    1
 40      1     3       8    5    5    9
 41      1     8       3    3    1    5
 42      1     6       4   10    4    5
 43      1     1       3    5    1    7
 44      1     1       8    7    1   10
 45      1     5       5    2    7    8
 46      1     8      10    8    9    8
 47      1     2       4    3    8    7
 48      1     2       9    5    1    2
 49      1     9       7    4   10    4
 50      1    10       3    9   10    3
 51      1     6       6    6    4    1
 52      1     9       7    5    2    8
 53      1     2       3    6    2    8
 54      1     9       5    1    1    6
 55      1     9       7    5    3    2
 56      1     5       4    6    9    2
 57      1     7       7    6    6    6
 58      1     1       8    8    2   10
 59      1     6       1    6    1    6
 60      1     5       2    6    4    7
 61      1    10       2    6    9    9
 62      1     1       9    4    3    6
 63      1     9       5    2    5    7
 64      1    10       8    1    4    3
 65      1     1       2    1    6    4
 66      1     1       9   10    4    5
 67      1     8       9    8   10    5
 68      1     9       6    1    9    3
 69      1     1       3    4    1    3
 70      1     4       3    9    1    7
 71      1    10       3    6   10    5
 72      1    10       1    6    4    3
 73      1     7       7    3    5    9
 74      1     9       6    4   10    4
 75      1     5       8   10    6    5
 76      1    10       2    2    9    4
 77      1     4       4   10    9   10
 78      1     8      10    7    8    3
 79      1     1       8    5    5    6
 80      1     1       2    2    7    8
 81      1     9       1    4   10    2
 82      1     2       2    8    1    5
 83      1     8       4   10    9    7
 84      1     8       7    7    3   10
 85      1     6       6    1    1    7
 86      1     4       7    1    6    4
 87      1     4       6    2    8    2
 88      1     1       8    1    6    9
 89      1     4       1    8    2    5
 90      1     1       4    4    8    3
 91      1     9       6    1    4    2
 92      1     7       1    6    5   10
 93      1     2       4    6    7    8
 94      1     5       8    4    7    6
 95      1     9       2    9    6    6
 96      1     7       4    2    5    2
 97      1     9       1    5    7    8
 98      1     5       4    1    2    2
 99      1     6       8    3    9    6
100      1     9       3   10    1    4
101      1     2       2    5    3    3
102      1     4       5    7    1    1
103      1     7       5    3    9    3
104      1     1       2    2    5    6
105      1     7       6    5    1    9
106      1    10       6   10    5   10
107      1     7      10    5    9    1
108      1    10       5    5    7    1
109      1    10      10    4    3    8
110      1     9       1    1    4    5
111      1     7       2    6   10    2
112      1     8       4    3    4    6
113      1     1      10    4    3    6
114      1     7       6    3    1    1
115      1    10       1    1   10   10
116      1     8       8    5    4    7
117      1    10       1    1    6    3
118      1     9       7    2    9   10
119      1     3       6   10    9    7
120      1     4       5    2    5    9
121      1     1       6    3    5    3
122      1     0       0    0    0    0
************************************************************************
RESOURCEAVAILABILITIES:
  R 1  R 2  R 3  R 4
   22   21   22   20
************************************************************************
